\ENCODING=ISO-8859-1
\Problem name: nSARP

Maximize
 obj1: 27.0009187324152 x(0,1,0) + 18.0002687486644 x(0,2,0)
       + 16.0007553999711 x(0,3,0) + 31.0009187324152 x(0,5,0)
       + 9.00052518113992 x(1,0,0) + 4.00040237448983 x(1,2,0)
       + 24.0004857077653 x(1,3,0) + 28.0005357074528 x(1,5,0)
       + 54.99976858424 x(2,0,0) + 42.9996315197239 x(2,1,0) - 23 x(3,0,0)
       - 11.0002227250179 x(3,1,0) - 10.0000449998988 x(4,0,0)
       - 22.0002272715534 x(4,1,0) - 5.00008999919001 x(4,2,0) + 0 y(5)
Subject To
 Constraint1_0:    x(0,1,0) + x(0,2,0) + x(0,3,0) + x(0,5,0)  = 1
 Constraint1_1:    x(1,0,0) + x(1,2,0) + x(1,3,0) + x(1,5,0)  = 1
 Constraint2_2:    x(2,0,0) + x(2,1,0) - y(2)  = 0
 Constraint3_2_0:  x(2,0,0) + x(2,1,0) - x(3,0,0) - x(3,1,0) - x(3,5,0)  = 0
 Constraint4_0_0:  x(0,1,0) + x(0,2,0) + x(0,3,0) + x(0,5,0) - x(1,0,0)
                   - x(2,0,0) - x(3,0,0) - x(4,0,0)  = 0
 Constraint4_1_0:  - x(0,1,0) + x(1,0,0) + x(1,2,0) + x(1,3,0) + x(1,5,0)
                   - x(2,1,0) - x(3,1,0) - x(4,1,0)  = 0
 Constraint4_2_0:  - x(0,2,0) - x(1,2,0) + x(2,0,0) + x(2,1,0) - x(4,2,0)  = 0
 Constraint4_3_0:  - x(0,3,0) - x(1,3,0) + x(3,0,0) + x(3,1,0) + x(3,5,0)  = 0
 Constraint5_0:    x(4,0,0) + x(4,1,0) + x(4,2,0)  = 1
 Constraint6_0:    x(0,5,0) + x(1,5,0) + x(3,5,0)  = 1
 Constraint7_0:    - 34 y(0) + b(0) <= 0
 Constraint7_1:    - 34 y(1) + b(1) <= 0
 Constraint7_2:    - 34 y(2) + b(2) <= 0
 Constraint7_3:    - 34 y(3) + b(3) <= 0
 Constraint7_4:    - 34 y(4) + b(4) <= 0
 Constraint8_2:    b(2) - b(3) <= 0
 Constraint9_0_1:  34 x(0,1,0) + b(0) - b(1) <= 33.2115558077303
 Constraint9_0_2:  34 x(0,2,0) + b(0) - b(2) <= 32.7452008862924
 Constraint9_0_3:  34 x(0,3,0) + b(0) - b(3) <= 32.6415991583809
 Constraint9_0_5:  34 x(0,5,0) + b(0) - b(5) <= 33.4188096937407
 Constraint9_1_0:  34 x(1,0,0) - b(0) + b(1) <= 32.4861732765736
 Constraint9_1_2:  34 x(1,2,0) + b(1) - b(2) <= 32.2270995560217
 Constraint9_1_3:  34 x(1,3,0) + b(1) - b(3) <= 33.2633733038598
 Constraint9_1_5:  34 x(1,5,0) + b(1) - b(5) <= 33.4706297805276
 Constraint9_2_0:  34 x(2,0,0) - b(0) + b(2) <= 33.6575806569754
 Constraint9_2_1:  34 x(2,1,0) - b(1) + b(2) <= 33.0358118971559
 Constraint9_3_0:  34 x(3,0,0) - b(0) + b(3) <= 32.7249568221071
 Constraint9_3_1:  34 x(3,1,0) - b(1) + b(3) <= 33.3467069399818
 Constraint9_3_5:  34 x(3,5,0) + b(3) - b(5) <= 33.9166666666667
 Constraint9_4_0:  34 x(4,0,0) - b(0) + b(4) <= 33.4818629533731
 Constraint9_4_1:  34 x(4,1,0) - b(1) + b(4) <= 32.8600918512149
 Constraint9_4_2:  34 x(4,2,0) - b(2) + b(4) <= 33.7409279793166
 Constraint10_0_1: - 2 x(0,1,0) - w(0) + w(1) >= -2
 Constraint10_0_2: - 2 x(0,2,0) - w(0) + w(2) >= -1
 Constraint10_0_3: - 2 x(0,3,0) - w(0) + w(3) >= -3
 Constraint10_0_5: - 2 x(0,5,0) - w(0) + w(5) >= -2
 Constraint10_1_0: - 2 x(1,0,0) + w(0) - w(1) >= -2
 Constraint10_1_2: - 2 x(1,2,0) - w(1) + w(2) >= -1
 Constraint10_1_3: - 2 x(1,3,0) - w(1) + w(3) >= -3
 Constraint10_1_5: - 2 x(1,5,0) - w(1) + w(5) >= -2
 Constraint10_2_0: - 2 x(2,0,0) + w(0) - w(2) >= -2
 Constraint10_2_1: - 2 x(2,1,0) + w(1) - w(2) >= -2
 Constraint10_3_0: - 2 x(3,0,0) + w(0) - w(3) >= -2
 Constraint10_3_1: - 2 x(3,1,0) + w(1) - w(3) >= -2
 Constraint10_3_5: - 2 x(3,5,0) - w(3) + w(5) >= -2
 Constraint10_4_0: - 2 x(4,0,0) + w(0) - w(4) >= -2
 Constraint10_4_1: - 2 x(4,1,0) + w(1) - w(4) >= -2
 Constraint10_4_2: - 2 x(4,2,0) + w(2) - w(4) >= -1
 Constraint11_0_0: b(0) <= 10.3333333333333
 Constraint12_0_0: b(0) >= 10.3333333333333
 Constraint11_1_0: b(1) <= 11.6666666666667
 Constraint12_1_0: b(1) >= 11.6666666666667
 Constraint11_2_0: b(2) <= 17
 Constraint12_2_0: b(2) >= 0
 Constraint11_3_0: b(3) <= 17
 Constraint12_3_0: b(3) >= 0
 Constraint11_4_0: b(4) <= 17
 Constraint12_4_0: b(4) >= 9
 Constraint11_5_0: b(5) <= 17
 Constraint12_5_0: b(5) >= 9
 Constraint14:     w(5)  = 0
Bounds
 0 <= x(0,1,0) <= 1
 0 <= x(0,2,0) <= 1
 0 <= x(0,3,0) <= 1
 0 <= x(0,5,0) <= 1
 0 <= x(1,0,0) <= 1
 0 <= x(1,2,0) <= 1
 0 <= x(1,3,0) <= 1
 0 <= x(1,5,0) <= 1
 0 <= x(2,0,0) <= 1
 0 <= x(2,1,0) <= 1
 0 <= x(3,0,0) <= 1
 0 <= x(3,1,0) <= 1
 0 <= x(3,5,0) <= 1
 0 <= x(4,0,0) <= 1
 0 <= x(4,1,0) <= 1
 0 <= x(4,2,0) <= 1
 0 <= y(0) <= 1
 0 <= y(1) <= 1
 0 <= y(2) <= 1
 0 <= y(3) <= 1
 0 <= y(4) <= 1
 0 <= y(5) <= 1
 0 <= b(0) <= 17
 0 <= b(1) <= 17
 0 <= b(2) <= 17
 0 <= b(3) <= 17
 0 <= b(4) <= 17
 0 <= b(5) <= 17
 0 <= w(0) <= 1
 0 <= w(1) <= 1
 0 <= w(2) <= 1
 0 <= w(3) <= 1
 0 <= w(4) <= 1
 0 <= w(5) <= 1
Binaries
 x(0,1,0)  x(0,2,0)  x(0,3,0)  x(0,5,0)  x(1,0,0)  x(1,2,0)  x(1,3,0) 
 x(1,5,0)  x(2,0,0)  x(2,1,0)  x(3,0,0)  x(3,1,0)  x(3,5,0)  x(4,0,0) 
 x(4,1,0)  x(4,2,0)  y(0)  y(1)  y(2)  y(3)  y(4)  y(5) 
End
